60
27 28
28 48
24 65
22 67
27 100
20 87
19 35
2 38
6 82
13 31
2 98
28 44
12 45
22 100
25 59
9 63
13 91
28 38
24 66
25 79
28 22
9 16
15 56
29 70
3 1
20 21
4 54
30 60
29 27
6 51
26 5
6 76
25 28
13 55
13 68
22 9
5 50
25 50
9 81
1 45
25 71
6 83
22 81
27 25
26 52
27 44
21 41
20 52
18 35
25 12
30 90
2 96
15 96
7 48
3 15
18 9
11 57
9 13
28 84
6 48
